
Gurobi 10.0.1 (linux64) logging started Sun Nov 26 15:52:11 2023

Set parameter LogFile to value "ArtificialInstance/ExperimentV2/S2T4K2/AdSp/gurobi91.txt"
Gurobi Optimizer version 10.0.1 build v10.0.1rc0 (linux64)

CPU model: AMD EPYC 7H12 64-Core Processor, instruction set [SSE2|AVX|AVX2]
Thread count: 128 physical cores, 128 logical processors, using up to 32 threads

Academic license 656792 - for non-commercial use only - registered to b.___@student.vu.nl
Optimize a model with 6730 rows, 6489 columns and 24683 nonzeros
Model fingerprint: 0x2921539d
Variable types: 0 continuous, 6489 integer (6489 binary)
Coefficient statistics:
  Matrix range     [1e+00, 1e+00]
  Objective range  [2e+00, 2e+01]
  Bounds range     [1e+00, 1e+00]
  RHS range        [1e+00, 1e+00]
Presolve removed 1233 rows and 1276 columns
Presolve time: 0.11s
Presolved: 5497 rows, 5213 columns, 20448 nonzeros
Variable types: 0 continuous, 5213 integer (5213 binary)
Found heuristic solution: objective 377.5193129

Root relaxation: objective 5.488280e+01, 3055 iterations, 0.14 seconds (0.12 work units)

    Nodes    |    Current Node    |     Objective Bounds      |     Work
 Expl Unexpl |  Obj  Depth IntInf | Incumbent    BestBd   Gap | It/Node Time

     0     0   54.88280    0  317  377.51931   54.88280  85.5%     -    0s
H    0     0                      74.1359471   54.88280  26.0%     -    0s
H    0     0                      63.5408709   54.88280  13.6%     -    0s
H    0     0                      57.5184891   54.88280  4.58%     -    0s
     0     0   56.17196    0  344   57.51849   56.17196  2.34%     -    0s
*    0     0               0      57.2460619   57.24606  0.00%     -    0s

Explored 1 nodes (4939 simplex iterations) in 0.59 seconds (0.36 work units)
Thread count was 32 (of 128 available processors)

Solution count 5: 57.2461 57.5185 63.5409 ... 377.519

Optimal solution found (tolerance 1.00e-04)
Best objective 5.724606191510e+01, best bound 5.724606191510e+01, gap 0.0000%
